p tdp 50 75
1 33
1 36
1 43
2 9
2 17
2 30
3 24
3 34
3 37
4 12
4 25
4 34
5 28
5 32
5 35
6 25
6 37
6 49
7 18
7 25
7 36
8 23
8 44
8 49
9 10
9 22
10 16
10 48
11 13
11 31
11 40
12 36
12 37
13 21
13 50
14 28
14 44
14 47
15 20
15 29
15 43
16 17
16 41
17 23
18 39
18 45
19 27
19 35
19 47
20 22
20 42
21 27
21 38
22 32
23 47
24 46
24 48
26 31
26 45
26 46
27 28
29 32
29 33
30 41
30 48
31 39
33 42
34 49
35 44
38 39
38 40
40 45
41 46
42 50
43 50
